(set-logic QF_S)
(declare-fun var_0xINPUT_144769 () String)
(assert (and (= (len var_0xINPUT_144769) 0) (= (len var_0xINPUT_144769) 0) (not (= var_0xINPUT_144769 "4PH2ujcENG"))))
(check-sat var_0xINPUT_144769)